CMD:
./solvers/bin/cadical --plain --no-reduce -t 1600 ./data/cnfs//pj2010/pj2010.10.cnf

c --- [ banner ] -------------------------------------------------------------
c 
c CaDiCaL SAT Solver
c Copyright (c) 2016-2024
c A. Biere, M. Fleury, N. Froleyks, K. Fazekas, F. Pollitt, T. Faller
c JKU Linz, University of Freiburg, TU Wien
c 
c Version 2.1.3 5296d3d2a9bf48c154ab2acb5e44625776d821bf
c g++ (Gentoo 12.3.1_p20230526 p2) 12.3.1 20230526 -Wall -Wextra -O3 -DNDEBUG
c Sat Aug 9 07:26:21 PDT 2025 Linux cedar2.int.cedar.computecanada.ca 5.14.0-362.24.2.el9_3.x86_64 x86_64
c 
c --- [ limit ] --------------------------------------------------------------
c 
c setting time limit to 1600 seconds real time (due to '-t 1600')
c 
c --- [ parsing input ] ------------------------------------------------------
c 
c reading DIMACS file from './data/cnfs//pj2010/pj2010.10.cnf'
c opening file to read './data/cnfs//pj2010/pj2010.10.cnf'
c found 'p cnf 203207 597490' header
c parsed 597490 clauses in 0.09 seconds process time
c 
c --- [ options ] ------------------------------------------------------------
c 
c   --compact=false                (different from default 'true')
c   --decompose=false              (different from default 'true')
c   --deduplicate=false            (different from default 'true')
c   --elim=false                   (different from default 'true')
c   --probe=false                  (different from default 'true')
c   --reduce=false                 (different from default 'true')
c   --subsume=false                (different from default 'true')
c   --ternary=false                (different from default 'true')
c   --transred=false               (different from default 'true')
c   --vivify=false                 (different from default 'true')
c 
c --- [ solving ] ------------------------------------------------------------
c 
c time measured in process time since initialization
c 
c  seconds  reductions  redundant  irredundant
c         MB    restarts       trail       variables
c          level   conflicts       glue          remaining
c 
c *  0.09 93  0 0   0    0    0  0% 0 572619 180722 89%
c {  0.09 93  0 0   0    0    0  0% 0 572619 180722 89%
c i  0.10 93 271 0   2   47   45 16% 2 572619 180703 89%
c i  0.10 93 250 0   2   51   47 15% 1 572619 180631 89%
c i  0.10 93 245 0   2   52   47 15% 1 572619 180164 89%
c i  0.11 94 368 0  10  214  206 18% 2 572619 180074 89%
c i  0.15 94 638 0  15  386  371 25% 2 572619 180072 89%
c i  0.16 94 615 0  15  405  385 25% 2 572619 180066 89%
c i  0.16 94 601 0  15  415  394 24% 2 572619 180065 89%
c i  0.16 94 598 0  15  417  395 24% 2 572619 179088 88%
c i  0.16 94 596 0  15  418  395 24% 2 572619 178687 88%
c i  0.16 94 594 0  15  420  396 24% 2 572619 178334 88%
c i  0.16 94 591 0  15  422  397 24% 2 572619 177965 88%
c }  0.16 94 588 0  15  425  398 24% 2 572619 177764 87%
c 0  0.16 94 588 0  15  425  398 24% 2 572619 177764 87%
c 
c --- [ result ] -------------------------------------------------------------
c 
s UNSATISFIABLE
c 
c --- [ run-time profiling ] -------------------------------------------------
c 
c process time taken by individual solving procedures
c (percentage relative to process time for solving)
c 
c         0.09  125.57% parse
c         0.07   99.89% search
c         0.06   91.73% unstable
c         0.01    8.14% lucky
c         0.00    0.00% simplify
c   =================================
c         0.07   44.18% solve
c 
c last line shows process time for solving
c (percentage relative to total process time)
c 
c --- [ statistics ] ---------------------------------------------------------
c 
c chronological:               275        64.71 %  of conflicts
c conflicts:                   425      6106.32    per second
c decisions:                 12583    180790.23    per second
c fixed:                     25443        12.52 %  of all variables
c learned:                     419        98.59 %  per conflict
c learned_lits:               2345       100.00 %  learned literals
c minimized:                     0         0.00 %  learned literals
c shrunken:                    267        11.39 %  learned literals
c minishrunken:                310        13.22 %  learned literals
c otfs:                          7         1.65 %  of conflict
c propagations:             808648        11.62 M  per second
c restarts:                     15        28.33    interval
c subsumed:                      9         0.00 %  of all clauses
c strengthened:                  7         0.00 %  of all clauses
c 
c seconds are measured in process time for solving
c 
c --- [ resources ] ----------------------------------------------------------
c 
c total process time since initialization:         0.16    seconds
c total real time since initialization:            0.16    seconds
c maximum resident set size of process:           93.09    MB
c 
c --- [ shutting down ] ------------------------------------------------------
c 
c exit 20
